
Gurobi 9.1.2 (linux64) logging started Thu Mar 31 09:07:38 2022

Changed value of parameter LogFile to ny_v-N12.log
   Prev:   Default: 
Changed value of parameter MIPFocus to 1
   Prev: 0  Min: 0  Max: 3  Default: 0
Changed value of parameter TimeLimit to 600.0
   Prev: inf  Min: 0.0  Max: inf  Default: inf
Warning: variables 0 and 130 have the same name "X[N2,N1]"
Warning: linear constraint 102 and linear constraint 103 have the same name "weight-constr-t5"
Warning: to let Gurobi read it back, use rlp format
Gurobi Optimizer version 9.1.2 build v9.1.2rc0 (linux64)
Thread count: 32 physical cores, 64 logical processors, using up to 32 threads
Optimize a model with 825 rows, 780 columns and 2742 nonzeros
Model fingerprint: 0x22607fb7
Variable types: 96 continuous, 684 integer (684 binary)
Coefficient statistics:
  Matrix range     [1e+00, 1e+06]
  Objective range  [2e-01, 2e-01]
  Bounds range     [1e+00, 5e+05]
  RHS range        [1e+00, 1e+06]
Presolve removed 294 rows and 324 columns
Presolve time: 0.01s
Presolved: 531 rows, 456 columns, 2878 nonzeros
Variable types: 84 continuous, 372 integer (366 binary)
Found heuristic solution: objective 70.9999999
Found heuristic solution: objective 34.8333333

Root relaxation: objective 1.500000e+01, 58 iterations, 0.00 seconds

    Nodes    |    Current Node    |     Objective Bounds      |     Work
 Expl Unexpl |  Obj  Depth IntInf | Incumbent    BestBd   Gap | It/Node Time

     0     0   15.00000    0    4   34.83333   15.00000  56.9%     -    0s
H    0     0                      20.0000000   15.00000  25.0%     -    0s
H    0     0                      16.0000000   15.00000  6.25%     -    0s
     0     0   15.00000    0    6   16.00000   15.00000  6.25%     -    0s
*    0     0               0      15.0000000   15.00000  0.00%     -    0s

Cutting planes:
  Flow cover: 5
  Relax-and-lift: 1

Explored 1 nodes (782 simplex iterations) in 0.06 seconds
Thread count was 32 (of 64 available processors)

Solution count 5: 15 16 20 ... 71

Optimal solution found (tolerance 1.00e-04)
Best objective 1.500000000000e+01, best bound 1.500000000000e+01, gap 0.0000%
